NAME PortOpt_n10_m4_inst_2
ROWS
 N  OBJ
 E  budget  
 G  return  
 L  uncertain_risk
 L  fixed_risk
COLUMNS
    asset[0]  budget    1
    asset[0]  return    4.0066369507587503e+00
    asset[1]  budget    1
    asset[1]  return    3.9189634477449578e+00
    asset[2]  budget    1
    asset[2]  return    4.5305318994852648e+00
    asset[3]  budget    1
    asset[3]  return    3.4919246952288749e+00
    asset[4]  budget    1
    asset[4]  return    4.0114220140125800e+00
    asset[5]  budget    1
    asset[5]  return    2.4019362129183790e+00
    asset[6]  budget    1
    asset[6]  return    2.0692761371555273e+00
    asset[7]  budget    1
    asset[7]  return    4.5916274566507562e+00
    asset[8]  budget    1
    asset[8]  return    2.7171417827066144e+00
    asset[9]  budget    1
    asset[9]  return    4.8655745281389313e+00
    return_var  OBJ       -1
    return_var  return    -1
    uncertain_risk_var  OBJ       1
    uncertain_risk_var  uncertain_risk  -1
    fixed_risk_var  OBJ       1
    fixed_risk_var  fixed_risk  -1
RHS
    RHS1      budget    1
BOUNDS
QCMATRIX   uncertain_risk
    asset[0]  asset[0]  5.0489337551202641e-02
    asset[0]  asset[1]  3.8303741721083334e-02
    asset[1]  asset[0]  3.8303741721083334e-02
    asset[0]  asset[2]  -6.8681643824380648e-02
    asset[2]  asset[0]  -6.8681643824380648e-02
    asset[0]  asset[3]  -3.3498079117998854e-03
    asset[3]  asset[0]  -3.3498079117998854e-03
    asset[0]  asset[4]  9.5410379026350609e-03
    asset[4]  asset[0]  9.5410379026350609e-03
    asset[0]  asset[5]  7.1374071181355813e-03
    asset[5]  asset[0]  7.1374071181355813e-03
    asset[0]  asset[6]  -3.1262352369189159e-02
    asset[6]  asset[0]  -3.1262352369189159e-02
    asset[0]  asset[7]  -9.6884652122588802e-02
    asset[7]  asset[0]  -9.6884652122588802e-02
    asset[0]  asset[8]  -3.3893826566327487e-02
    asset[8]  asset[0]  -3.3893826566327487e-02
    asset[0]  asset[9]  4.9839112383563228e-02
    asset[9]  asset[0]  4.9839112383563228e-02
    asset[1]  asset[1]  1.4945729652199491e-01
    asset[1]  asset[2]  -3.0309537040150353e-02
    asset[2]  asset[1]  -3.0309537040150353e-02
    asset[1]  asset[3]  1.0540820945829654e-02
    asset[3]  asset[1]  1.0540820945829654e-02
    asset[1]  asset[4]  5.0968809246752997e-02
    asset[4]  asset[1]  5.0968809246752997e-02
    asset[1]  asset[5]  -4.1624357538263893e-02
    asset[5]  asset[1]  -4.1624357538263893e-02
    asset[1]  asset[6]  -9.2279121791317226e-02
    asset[6]  asset[1]  -9.2279121791317226e-02
    asset[1]  asset[7]  -8.1079750041036236e-02
    asset[7]  asset[1]  -8.1079750041036236e-02
    asset[1]  asset[8]  -5.2648799795901632e-02
    asset[8]  asset[1]  -5.2648799795901632e-02
    asset[1]  asset[9]  7.0623309256106603e-02
    asset[9]  asset[1]  7.0623309256106603e-02
    asset[2]  asset[2]  9.8814480342202929e-02
    asset[2]  asset[3]  4.2965400113332917e-03
    asset[3]  asset[2]  4.2965400113332917e-03
    asset[2]  asset[4]  -3.5305249464246216e-03
    asset[4]  asset[2]  -3.5305249464246216e-03
    asset[2]  asset[5]  -1.5171777923040135e-02
    asset[5]  asset[2]  -1.5171777923040135e-02
    asset[2]  asset[6]  3.4777724022206316e-02
    asset[6]  asset[2]  3.4777724022206316e-02
    asset[2]  asset[7]  1.3508976081565588e-01
    asset[7]  asset[2]  1.3508976081565588e-01
    asset[2]  asset[8]  4.4844866803214589e-02
    asset[8]  asset[2]  4.4844866803214589e-02
    asset[2]  asset[9]  -6.3425647521066858e-02
    asset[9]  asset[2]  -6.3425647521066858e-02
    asset[3]  asset[3]  7.6214278797932765e-03
    asset[3]  asset[4]  -4.5033398232441238e-04
    asset[4]  asset[3]  -4.5033398232441238e-04
    asset[3]  asset[5]  -6.0304670321130217e-03
    asset[5]  asset[3]  -6.0304670321130217e-03
    asset[3]  asset[6]  -9.3009713826782622e-03
    asset[6]  asset[3]  -9.3009713826782622e-03
    asset[3]  asset[7]  1.7128910290149266e-03
    asset[7]  asset[3]  1.7128910290149266e-03
    asset[3]  asset[8]  -1.4499551094948387e-03
    asset[8]  asset[3]  -1.4499551094948387e-03
    asset[3]  asset[9]  1.2623297585842698e-03
    asset[9]  asset[3]  1.2623297585842698e-03
    asset[4]  asset[4]  2.1981235800864807e-02
    asset[4]  asset[5]  -2.0198700703416835e-02
    asset[5]  asset[4]  -2.0198700703416835e-02
    asset[4]  asset[6]  -3.2747108898183996e-02
    asset[6]  asset[4]  -3.2747108898183996e-02
    asset[4]  asset[7]  -2.3056288068623036e-02
    asset[7]  asset[4]  -2.3056288068623036e-02
    asset[4]  asset[8]  -2.1104028425098093e-02
    asset[8]  asset[4]  -2.1104028425098093e-02
    asset[4]  asset[9]  2.2464397890159225e-02
    asset[9]  asset[4]  2.2464397890159225e-02
    asset[5]  asset[5]  4.8166426159079824e-02
    asset[5]  asset[6]  5.2209122942831539e-02
    asset[6]  asset[5]  5.2209122942831539e-02
    asset[5]  asset[7]  1.9300957737951419e-02
    asset[7]  asset[5]  1.9300957737951419e-02
    asset[5]  asset[8]  3.8743471561317161e-02
    asset[8]  asset[5]  3.8743471561317161e-02
    asset[5]  asset[9]  -1.7192504468018906e-02
    asset[9]  asset[5]  -1.7192504468018906e-02
    asset[6]  asset[6]  9.1352186872807217e-02
    asset[6]  asset[7]  9.7437416278602612e-02
    asset[7]  asset[6]  9.7437416278602612e-02
    asset[6]  asset[8]  7.0706090808228400e-02
    asset[8]  asset[6]  7.0706090808228400e-02
    asset[6]  asset[9]  -6.1864433553533986e-02
    asset[9]  asset[6]  -6.1864433553533986e-02
    asset[7]  asset[7]  2.1970450167812694e-01
    asset[7]  asset[8]  1.0133727740773893e-01
    asset[8]  asset[7]  1.0133727740773893e-01
    asset[7]  asset[9]  -1.1009348287760573e-01
    asset[9]  asset[7]  -1.1009348287760573e-01
    asset[8]  asset[8]  6.6656018708891318e-02
    asset[8]  asset[9]  -5.3931376094431244e-02
    asset[9]  asset[8]  -5.3931376094431244e-02
    asset[9]  asset[9]  6.2784533348471269e-02
QCMATRIX   fixed_risk
    asset[0]  asset[0]  4.9374241904120986e-03
    asset[1]  asset[1]  1.5036341570299611e-02
    asset[2]  asset[2]  1.0428963847084435e-02
    asset[3]  asset[3]  6.8559819530026288e-04
    asset[4]  asset[4]  2.3073808509931786e-03
    asset[5]  asset[5]  5.2396661692065936e-03
    asset[6]  asset[6]  9.6787482553204462e-03
    asset[7]  asset[7]  2.4120783074387267e-02
    asset[8]  asset[8]  5.7854392523722653e-03
    asset[9]  asset[9]  6.3788600693016236e-03
ENDATA
